beginners/examples/qfnra.out.smt2
sat
(
(define-fun x () Real (- 2.0))
(define-fun y () Real (- 7.0))
(define-fun z () Real (/ (- 44) 5))
)
